c User generated cnf file
p cnf 7 39
6 4 -4 0 
4 4 -7 0 
4 -6 5 0 
6 3 -3 0 
4 -2 4 0 
3 7 -3 0 
5 2 -1 0 
3 1 -6 0 
4 1 -7 0 
1 -6 3 0 
3 1 -5 0 
4 5 -1 0 
4 -1 1 0 
7 -3 3 0 
2 -5 4 0 
1 -5 4 0 
5 -5 2 0 
5 -1 4 0 
1 6 -7 0 
7 -4 5 0 
7 4 -3 0 
4 6 -7 0 
4 -4 1 0 
1 -6 1 0 
5 3 -7 0 
7 5 -1 0 
1 -7 1 0 
5 2 -5 0 
7 1 -7 0 
5 6 -1 0 
6 -2 1 0 
2 3 -3 0 
6 4 -7 0 
2 6 -6 0 
7 -7 1 0 
3 4 -2 0 
5 4 -4 0 
4 6 -7 0 
6 -4 2 0 
